sat
(:added-eqs              84
 :arith-eq-adapter       23
 :arith-conflicts        3
 :arith-diseq            7
 :arith-fixed-eqs        16
 :arith-grobner-calls    2
 :arith-lower            28
 :arith-make-feasible    19
 :arith-max-columns      232
 :arith-max-rows         30
 :arith-nla-add-bounds   1
 :arith-nla-propagate-eq 26
 :arith-nra-calls        1
 :arith-offset-eqs       3
 :arith-upper            146
 :binary-propagations    177
 :card2bv-rewrites       8
 :conflicts              4
 :decisions              160
 :del-clause             24
 :elim-unconstrained     3
 :final-checks           2
 :max-memory             19.97
 :memory                 18.55
 :mk-bool-var            330
 :mk-clause              59
 :mk-clause-binary       287
 :nlsat-conflicts        28
 :nlsat-decisions        55
 :nlsat-propagations     2783
 :nlsat-restarts         11
 :nlsat-stages           2766
 :num-allocs             941050
 :num-checks             1
 :propagations           198
 :rlimit-count           112552
 :time                   0.03
 :total-time             0.04)
